Using license file /home/benedond/gurobi.lic
Using gurobi.env file
Set parameter Threads to value 1
Academic license - for non-commercial use only
Changed value of parameter TimeLimit to 300.0
   Prev: inf  Min: 0.0  Max: inf  Default: inf
Gurobi Optimizer version 9.0.1 build v9.0.1rc0 (linux64)
Optimize a model with 3750 rows, 1860 columns and 14518 nonzeros
Model fingerprint: 0xfec1c252
Variable types: 30 continuous, 1830 integer (1800 binary)
Coefficient statistics:
  Matrix range     [2e-01, 5e+03]
  Objective range  [7e-04, 2e-01]
  Bounds range     [1e+00, 1e+00]
  RHS range        [1e+00, 5e+03]

---------------------------------------------------------------------------
Multi-objectives: starting optimization with 1 objectives ... 
---------------------------------------------------------------------------
---------------------------------------------------------------------------

Multi-objectives: optimize objective 1 (min avg power cons) ...
---------------------------------------------------------------------------

Optimize a model with 3750 rows, 1860 columns and 14518 nonzeros
Variable types: 30 continuous, 1830 integer (1800 binary)
Coefficient statistics:
  Matrix range     [2e-01, 5e+03]
  Objective range  [7e-04, 2e-01]
  Bounds range     [1e+00, 1e+00]
  RHS range        [1e+00, 5e+03]
Presolve removed 2347 rows and 1167 columns
Presolve time: 0.15s
Presolved: 1403 rows, 693 columns, 5232 nonzeros
Variable types: 24 continuous, 669 integer (645 binary)

Root relaxation: objective 1.665233e+00, 323 iterations, 0.01 seconds

    Nodes    |    Current Node    |     Objective Bounds      |     Work
 Expl Unexpl |  Obj  Depth IntInf | Incumbent    BestBd   Gap | It/Node Time

     0     0    1.66523    0   71          -    1.66523      -     -    0s
H    0     0                       3.8868288    1.66523  57.2%     -    0s
H    0     0                       3.7548288    1.66523  55.7%     -    0s
     0     0    1.66523    0   97    3.75483    1.66523  55.7%     -    0s
     0     0    1.66523    0   93    3.75483    1.66523  55.7%     -    0s
     0     0    1.73263    0   78    3.75483    1.73263  53.9%     -    0s
     0     0    1.73527    0   82    3.75483    1.73527  53.8%     -    0s
     0     0    1.85357    0  106    3.75483    1.85357  50.6%     -    0s
H    0     0                       3.6202397    1.85357  48.8%     -    0s
H    0     0                       3.5276370    1.85357  47.5%     -    0s
     0     0    1.86133    0  108    3.52764    1.86133  47.2%     -    0s
     0     0    1.89881    0  104    3.52764    1.89881  46.2%     -    0s
     0     0    1.93125    0  110    3.52764    1.93125  45.3%     -    0s
     0     0    1.95897    0  126    3.52764    1.95897  44.5%     -    0s
H    0     0                       3.4872192    1.95897  43.8%     -    0s
     0     0    1.97176    0  126    3.48722    1.97176  43.5%     -    0s
     0     0    1.99574    0  117    3.48722    1.99574  42.8%     -    0s
H    0     0                       3.4062877    1.99574  41.4%     -    0s
H    0     0                       3.3503014    1.99574  40.4%     -    0s
     0     0    2.00458    0  155    3.35030    2.00458  40.2%     -    0s
     0     0    2.00700    0  138    3.35030    2.00700  40.1%     -    0s
     0     0    2.00783    0  140    3.35030    2.00783  40.1%     -    0s
     0     0    2.00816    0  142    3.35030    2.00816  40.1%     -    0s
     0     0    2.00864    0  147    3.35030    2.00864  40.0%     -    0s
     0     0    2.00879    0  147    3.35030    2.00879  40.0%     -    0s
     0     0    2.00881    0  148    3.35030    2.00881  40.0%     -    0s
     0     0    2.02034    0  136    3.35030    2.02034  39.7%     -    0s
     0     0    2.02413    0  125    3.35030    2.02413  39.6%     -    0s
     0     0    2.02496    0  137    3.35030    2.02496  39.6%     -    0s
     0     0    2.02522    0  141    3.35030    2.02522  39.6%     -    0s
     0     0    2.02539    0  140    3.35030    2.02539  39.5%     -    0s
     0     0    2.02551    0  141    3.35030    2.02551  39.5%     -    0s
     0     0    2.04611    0  128    3.35030    2.04611  38.9%     -    0s
H    0     0                       3.3227260    2.04611  38.4%     -    0s
     0     0    2.05296    0  145    3.32273    2.05296  38.2%     -    0s
     0     0    2.05534    0  157    3.32273    2.05534  38.1%     -    0s
     0     0    2.05630    0  158    3.32273    2.05630  38.1%     -    0s
     0     0    2.05682    0  153    3.32273    2.05682  38.1%     -    0s
     0     0    2.05699    0  148    3.32273    2.05699  38.1%     -    0s
     0     0    2.05735    0  155    3.32273    2.05735  38.1%     -    0s
     0     0    2.05754    0  148    3.32273    2.05754  38.1%     -    0s
     0     0    2.05755    0  147    3.32273    2.05755  38.1%     -    0s
     0     0    2.06669    0  159    3.32273    2.06669  37.8%     -    0s
     0     0    2.07042    0  169    3.32273    2.07042  37.7%     -    0s
     0     0    2.07145    0  168    3.32273    2.07145  37.7%     -    0s
     0     0    2.07181    0  168    3.32273    2.07181  37.6%     -    0s
     0     0    2.07192    0  167    3.32273    2.07192  37.6%     -    0s
     0     0    2.07777    0  135    3.32273    2.07777  37.5%     -    0s
     0     0    2.08079    0  170    3.32273    2.08079  37.4%     -    1s
     0     0    2.08141    0  149    3.32273    2.08141  37.4%     -    1s
     0     0    2.08283    0  147    3.32273    2.08283  37.3%     -    1s
     0     0    2.08315    0  155    3.32273    2.08315  37.3%     -    1s
     0     0    2.08323    0  151    3.32273    2.08323  37.3%     -    1s
     0     0    2.08466    0  153    3.32273    2.08466  37.3%     -    1s
     0     0    2.08540    0  166    3.32273    2.08540  37.2%     -    1s
     0     0    2.08554    0  169    3.32273    2.08554  37.2%     -    1s
     0     0    2.08709    0  144    3.32273    2.08709  37.2%     -    1s
     0     0    2.08764    0  169    3.32273    2.08764  37.2%     -    1s
     0     0    2.08769    0  160    3.32273    2.08769  37.2%     -    1s
     0     0    2.08861    0  162    3.32273    2.08861  37.1%     -    1s
     0     0    2.08861    0  161    3.32273    2.08861  37.1%     -    1s
     0     2    2.08866    0  160    3.32273    2.08866  37.1%     -    1s
H   27    21                       3.2824110    2.08866  36.4%  64.0    1s
H  108    68                       3.2818219    2.09045  36.3%  32.2    1s
H  162    86                       3.1354384    2.09442  33.2%  31.6    2s
H  215   106                       3.1102123    2.09861  32.5%  37.9    2s
H  522   263                       3.0863356    2.17017  29.7%  40.3    3s
   548   281    2.81224   16  150    3.08634    2.17017  29.7%  38.4    5s
H  688   354                       3.0795548    2.17017  29.5%  72.5    9s
   744   366    2.30704   31   89    3.07955    2.17017  29.5%  74.0   10s
H  785   372                       3.0686096    2.17017  29.3%  76.2   10s
H  979   441                       3.0573904    2.17017  29.0%  78.1   12s
H 1351   639                       3.0438767    2.17017  28.7%  69.8   14s
* 1357   638              91       3.0302260    2.17017  28.4%  69.5   14s
H 1395   664                       3.0060480    2.17017  27.8%  69.2   14s
H 1462   674                       2.9657329    2.17537  26.6%  68.6   14s
  1471   685    2.35942   47   95    2.96573    2.17537  26.6%  69.4   15s
  2343  1275    2.37501   22  104    2.96573    2.21344  25.4%  72.9   20s
H 2714  1550                       2.9567671    2.21973  24.9%  71.3   22s
  3196  1859    2.49492   45  114    2.95677    2.22813  24.6%  69.6   25s
  4185  2472    2.28677   35  131    2.95677    2.24506  24.1%  69.4   30s
  4912  2895     cutoff   70         2.95677    2.25987  23.6%  70.5   35s
  5128  3036    2.78361   66  162    2.95677    2.26132  23.5%  71.2   40s
  5243  3110    2.37908   85  120    2.95677    2.26132  23.5%  74.1   45s
H 5265  2969                       2.9565480    2.26132  23.5%  74.2   45s
  5890  3207    2.39076   47   93    2.95655    2.26132  23.5%  75.2   50s
  6448  3428    2.42714   53  123    2.95655    2.26132  23.5%  74.1   55s
H 7275  3547                       2.9564384    2.26470  23.4%  73.1   59s
  7316  3570    2.90603   79   77    2.95644    2.26618  23.3%  73.4   60s
  8210  3836     cutoff   73         2.95644    2.30032  22.2%  74.0   65s
  8931  4079    2.82428   47  132    2.95644    2.30976  21.9%  74.0   70s
  9854  4391    2.48314   69   76    2.95644    2.32047  21.5%  73.6   75s
 11039  4808    2.88864   47  101    2.95644    2.33431  21.0%  72.8   80s
 11965  5117    2.63917   60   67    2.95644    2.34439  20.7%  73.5   85s
 12962  5457    2.59008   49  136    2.95644    2.35122  20.5%  73.6   90s
 13721  5815    2.65117   64   87    2.95644    2.35890  20.2%  74.0   95s
 14660  6389    2.65261   63  191    2.95644    2.37255  19.7%  74.5  100s
 15304  6832    2.83955   79  161    2.95644    2.37916  19.5%  74.7  128s
 15321  6843    2.84299  135  153    2.95644    2.37916  19.5%  74.6  130s
 15339  6855    2.74132   68  173    2.95644    2.37916  19.5%  74.5  135s
 15357  6867    2.71366   52  148    2.95644    2.37916  19.5%  74.4  140s
 15374  6879    2.59426   88  207    2.95644    2.37916  19.5%  74.4  145s
 15392  6891    2.93933   84  191    2.95644    2.37916  19.5%  74.3  150s
 15410  6903    2.74091   97  163    2.95644    2.37916  19.5%  74.2  155s
 15427  6914    2.80764   72  156    2.95644    2.37916  19.5%  74.1  160s
 15445  6926    2.83356   96  160    2.95644    2.37916  19.5%  74.0  165s
 15462  6937    2.53993   48  159    2.95644    2.37916  19.5%  73.9  170s
 15479  6949    2.64660   68  201    2.95644    2.37916  19.5%  73.9  175s
 15496  6960    2.71989   92  162    2.95644    2.37916  19.5%  73.8  180s
 15513  6971    2.79423   82  192    2.95644    2.37916  19.5%  73.7  186s
 15515  6975    2.37916   43  183    2.95644    2.37916  19.5%  74.9  190s
 15523  6979    2.37916   47  171    2.95644    2.37916  19.5%  75.1  195s
 15552  6998    2.41991   61   83    2.95644    2.37916  19.5%  75.5  200s
 15806  7097    2.62411   98   59    2.95644    2.37916  19.5%  76.2  205s
 16442  7296    2.83291  110   54    2.95644    2.37916  19.5%  75.6  210s
 16720  7406    2.77541   92   78    2.95644    2.37916  19.5%  75.6  215s
 17429  7601    2.38806   58  151    2.95644    2.37916  19.5%  75.3  220s
 18078  7797    2.81353   89   65    2.95644    2.37916  19.5%  75.8  225s
 18698  8041    2.76720   81  119    2.95644    2.37916  19.5%  76.0  230s
 19295  8248    2.73432   83   88    2.95644    2.37916  19.5%  76.3  235s
 20010  8463    2.79146   75   75    2.95644    2.37916  19.5%  76.6  240s
 20590  8656    2.87371   80   75    2.95644    2.37916  19.5%  76.7  245s
 21313  8887    2.49270   59  183    2.95644    2.38253  19.4%  77.0  250s
 21884  9074    2.55144   56  127    2.95644    2.38772  19.2%  77.1  255s
 22485  9290     cutoff   85         2.95644    2.39595  19.0%  77.5  260s
 23158  9477    2.48043   69  119    2.95644    2.40253  18.7%  77.7  265s
 23730  9665    2.55732   55  117    2.95644    2.40547  18.6%  78.2  270s
 24481  9915    2.62847   89   97    2.95644    2.41192  18.4%  78.1  275s
 25116 10115    2.49532   71  110    2.95644    2.41645  18.3%  78.2  280s
 25729 10254    2.53625   63  120    2.95644    2.42168  18.1%  78.7  285s
 26469 10453    2.80817   74   78    2.95644    2.42463  18.0%  78.8  290s
 26550 10473    2.46742   72  106    2.95644    2.42604  17.9%  78.8  299s

Cutting planes:
  Gomory: 6
  Cover: 14
  Implied bound: 106
  Projected implied bound: 13
  Clique: 1
  MIR: 294
  Flow cover: 429
  GUB cover: 6
  RLT: 1
  Relax-and-lift: 355

Explored 26631 nodes (2106859 simplex iterations) in 300.00 seconds
Thread count was 1 (of 4 available processors)

Solution count 10: 2.95644 2.95655 2.95677 ... 3.07955

Time limit reached
Best objective 2.956438370376e+00, best bound 2.426131228004e+00, gap 17.9374%

---------------------------------------------------------------------------
Multi-objectives: stopped in 300.01 seconds, solution count 10
Time Limit reached

